; benchmark generated from python API
(set-info :status unknown)
(declare-fun W_S2_V2 () Bool)
(declare-fun W_S2_V1 () Bool)
(declare-fun DISJ_W_S1_R_S1 () Bool)
(declare-fun DISJ_W_S2_R_S1 () Bool)
(declare-fun R_E1_V4 () Bool)
(declare-fun W_S1_V4 () Bool)
(declare-fun R_E1_V5 () Bool)
(declare-fun W_S1_V5 () Bool)
(declare-fun W_S2_V5 () Bool)
(declare-fun W_S2_V3 () Bool)
(declare-fun R_S2_V4 () Bool)
(declare-fun R_S2_V5 () Bool)
(declare-fun R_S2_V2 () Bool)
(declare-fun R_S2_V3 () Bool)
(declare-fun R_S2_V1 () Bool)
(declare-fun R_S1_V1 () Bool)
(declare-fun R_S1_V4 () Bool)
(declare-fun R_S1_V5 () Bool)
(declare-fun R_S1_V2 () Bool)
(declare-fun R_S1_V3 () Bool)
(declare-fun R_E1_V2 () Bool)
(declare-fun DISJ_W_S2_R_E1 () Bool)
(declare-fun DISJ_W_S2_R_S2 () Bool)
(declare-fun DISJ_W_S1_W_S2 () Bool)
(declare-fun R_E1_V3 () Bool)
(declare-fun DISJ_W_S1_R_S2 () Bool)
(declare-fun W_S2_V4 () Bool)
(declare-fun W_S1_V3 () Bool)
(declare-fun W_S1_V2 () Bool)
(declare-fun W_S1_V1 () Bool)
(declare-fun R_E1_V1 () Bool)
(declare-fun DISJ_W_S1_R_E1 () Bool)
(assert
 (let (($x2227 (not (and (not W_S2_V1) (not W_S2_V2)))))
 (let (($x2279 (not (and (not W_S2_V2) DISJ_W_S2_R_S1 DISJ_W_S1_R_S1))))
 (let (($x4233 (not (and W_S1_V4 R_E1_V4))))
 (let (($x243 (not (and W_S1_V5 R_E1_V5))))
 (let (($x631 (forall ((V3_0 Int) )(forall ((V2_0 Int) )(forall ((V5_0 Int) )(forall ((V4_0 Int) )(forall ((MW_S1_V1 Bool) )(forall ((MW_S1_V3 Bool) )(forall ((MW_S1_V2 Bool) )(forall ((MW_S1_V5 Bool) )(forall ((MW_S1_V4 Bool) )(forall ((MW_S2_V1 Bool) )(forall ((MW_S2_V3 Bool) )(forall ((MW_S2_V2 Bool) )(forall ((MW_S2_V5 Bool) )(forall ((MW_S2_V4 Bool) )(forall ((S1_V1_!1516 Int) )(forall ((S1_V1_!1521 Int) )(forall ((S1_V1_!1533 Int) )(forall ((S2_V5_!1530 Int) )(forall ((S2_V5_!1541 Int) )(forall ((S1_V3_!1517 Int) )(forall ((S1_V3_!1522 Int) )(forall ((S1_V3_!1534 Int) )(forall ((S1_V2_!1518 Int) )(forall ((S1_V2_!1523 Int) )(forall ((S1_V2_!1535 Int) )(forall ((E1_!1515 Int) )(forall ((E1_!1526 Int) )(forall ((E1_!1532 Int) )(forall ((S2_V4_!1531 Int) )(forall ((S2_V4_!1542 Int) )(forall ((S1_V5_!1519 Int) )(forall ((S1_V5_!1524 Int) )(forall ((S1_V5_!1536 Int) )(forall ((S2_V1_!1527 Int) )(forall ((S2_V1_!1538 Int) )(forall ((S1_V4_!1520 Int) )(forall ((S1_V4_!1525 Int) )(forall ((S1_V4_!1537 Int) )(forall ((S2_V2_!1529 Int) )(forall ((S2_V2_!1540 Int) )(forall ((S2_V3_!1528 Int) )(forall ((S2_V3_!1539 Int) )(let (($x1678 (= (ite MW_S2_V4 S2_V4_!1531 (ite MW_S1_V4 S1_V4_!1525 V4_0)) (ite MW_S2_V4 S2_V4_!1542 (ite MW_S1_V4 S1_V4_!1537 V4_0)))))
 (let (($x1588 (= (ite MW_S2_V5 S2_V5_!1530 (ite MW_S1_V5 S1_V5_!1524 V5_0)) (ite MW_S2_V5 S2_V5_!1541 (ite MW_S1_V5 S1_V5_!1536 V5_0)))))
 (let ((?x5129 (ite MW_S1_V2 S1_V2_!1535 V2_0)))
 (let ((?x24 (ite MW_S2_V2 S2_V2_!1540 ?x5129)))
 (let ((?x2068 (ite MW_S1_V2 S1_V2_!1523 V2_0)))
 (let ((?x3177 (ite MW_S2_V2 S2_V2_!1529 ?x2068)))
 (let (($x2568 (= (ite MW_S2_V3 S2_V3_!1528 (ite MW_S1_V3 S1_V3_!1522 V3_0)) (ite MW_S2_V3 S2_V3_!1539 (ite MW_S1_V3 S1_V3_!1534 V3_0)))))
 (let (($x2913 (and (= (ite MW_S2_V1 S2_V1_!1527 E1_!1526) (ite MW_S2_V1 S2_V1_!1538 (ite MW_S1_V1 S1_V1_!1533 E1_!1532))) $x2568 (= ?x3177 ?x24) $x1588 $x1678)))
 (let (($x4196 (>= (ite MW_S1_V1 S1_V1_!1521 (+ 1 (ite MW_S1_V1 S1_V1_!1516 E1_!1515))) (+ (- 1) ?x2068))))
 (let (($x1074 (and (not (<= V2_0 E1_!1515)) (not (<= (ite MW_S1_V2 S1_V2_!1518 V2_0) (+ 1 (ite MW_S1_V1 S1_V1_!1516 E1_!1515)))) $x4196 (not (<= ?x2068 E1_!1526)) (>= (ite MW_S2_V1 S2_V1_!1527 E1_!1526) (+ (- 1) ?x3177)) (not (<= V2_0 E1_!1532)) (>= (ite MW_S2_V1 S2_V1_!1538 (ite MW_S1_V1 S1_V1_!1533 E1_!1532)) (+ (- 1) ?x24)))))
 (let (($x753 (= S2_V3_!1528 S2_V3_!1539)))
 (let (($x4631 (and (or (not R_S2_V1) (= E1_!1526 (ite MW_S1_V1 S1_V1_!1533 E1_!1532))) (or (not R_S2_V3) (= (ite MW_S1_V3 S1_V3_!1522 V3_0) (ite MW_S1_V3 S1_V3_!1534 V3_0))) (or (not R_S2_V2) (= ?x2068 ?x5129)) (or (not R_S2_V5) (= (ite MW_S1_V5 S1_V5_!1524 V5_0) (ite MW_S1_V5 S1_V5_!1536 V5_0))) (or (not R_S2_V4) (= (ite MW_S1_V4 S1_V4_!1525 V4_0) (ite MW_S1_V4 S1_V4_!1537 V4_0))))))
 (let (($x1840 (not $x4631)))
 (let (($x657 (not R_S1_V4)))
 (let (($x1387 (or $x657 (= (ite MW_S1_V4 S1_V4_!1520 V4_0) V4_0))))
 (let (($x1345 (not R_S1_V5)))
 (let (($x2987 (or $x1345 (= (ite MW_S1_V5 S1_V5_!1519 V5_0) V5_0))))
 (let (($x3524 (not R_S1_V2)))
 (let (($x1274 (or $x3524 (= (ite MW_S1_V2 S1_V2_!1518 V2_0) V2_0))))
 (let (($x185 (not R_S1_V3)))
 (let (($x1500 (or $x185 (= (ite MW_S1_V3 S1_V3_!1517 V3_0) V3_0))))
 (let (($x426 (and (or (not R_S1_V1) (= (ite MW_S1_V1 S1_V1_!1516 E1_!1515) (+ (- 1) E1_!1532))) $x1500 $x1274 $x2987 $x1387)))
 (let (($x2774 (and (or (not R_S1_V1) (= (ite MW_S1_V1 S1_V1_!1516 E1_!1515) (+ (- 1) E1_!1515))) $x1500 $x1274 $x2987 $x1387)))
 (let (($x577 (or $x657 (= V4_0 (ite MW_S1_V4 S1_V4_!1520 V4_0)))))
 (let (($x2175 (or $x1345 (= V5_0 (ite MW_S1_V5 S1_V5_!1519 V5_0)))))
 (let (($x5930 (or $x3524 (= V2_0 (ite MW_S1_V2 S1_V2_!1518 V2_0)))))
 (let (($x2652 (or $x185 (= V3_0 (ite MW_S1_V3 S1_V3_!1517 V3_0)))))
 (let (($x1962 (and (or (not R_S1_V1) (= E1_!1532 (+ 1 (ite MW_S1_V1 S1_V1_!1516 E1_!1515)))) $x2652 $x5930 $x2175 $x577)))
 (let (($x6081 (not $x1962)))
 (let (($x3113 (and (or (not R_S1_V1) (= E1_!1515 (+ 1 (ite MW_S1_V1 S1_V1_!1516 E1_!1515)))) $x2652 $x5930 $x2175 $x577)))
 (let (($x303 (not $x3113)))
 (let (($x2001 (= S2_V4_!1542 S2_V4_!1531)))
 (let (($x1043 (and (or (not R_S2_V1) (= (ite MW_S1_V1 S1_V1_!1533 E1_!1532) E1_!1526)) (or (not R_S2_V3) (= (ite MW_S1_V3 S1_V3_!1534 V3_0) (ite MW_S1_V3 S1_V3_!1522 V3_0))) (or (not R_S2_V2) (= ?x5129 ?x2068)) (or (not R_S2_V5) (= (ite MW_S1_V5 S1_V5_!1536 V5_0) (ite MW_S1_V5 S1_V5_!1524 V5_0))) (or (not R_S2_V4) (= (ite MW_S1_V4 S1_V4_!1537 V4_0) (ite MW_S1_V4 S1_V4_!1525 V4_0))))))
 (let (($x2950 (= E1_!1532 E1_!1515)))
 (let (($x1702 (= E1_!1526 E1_!1532)))
 (let (($x3476 (and (or (not R_E1_V2) (= ?x2068 V2_0)) (or (not R_E1_V5) (= (ite MW_S1_V5 S1_V5_!1524 V5_0) V5_0)) (or (not R_E1_V4) (= (ite MW_S1_V4 S1_V4_!1525 V4_0) V4_0)))))
 (let (($x2543 (not $x3476)))
 (let (($x3494 (and (or $x303 (= S1_V1_!1516 S1_V1_!1521)) (or (not (or (not R_S1_V1) (= E1_!1515 E1_!1532))) (= S1_V1_!1516 S1_V1_!1533)) (or $x6081 (= S1_V1_!1533 S1_V1_!1521)) (or $x1840 (= S2_V5_!1530 S2_V5_!1541)) (or $x303 (= S1_V3_!1517 S1_V3_!1522)) (or (not (or (not R_S1_V1) (= E1_!1515 E1_!1532))) (= S1_V3_!1517 S1_V3_!1534)) (or $x6081 (= S1_V3_!1534 S1_V3_!1522)) (or $x303 (= S1_V2_!1518 S1_V2_!1523)) (or (not (or (not R_S1_V1) $x2950)) (= S1_V2_!1535 S1_V2_!1518)) (or $x6081 (= S1_V2_!1535 S1_V2_!1523)) (or $x2543 (= E1_!1526 E1_!1515)) (or $x2543 $x1702) $x2950 (or (not $x1043) $x2001) (or $x303 (= S1_V5_!1519 S1_V5_!1524)) (or (not (or (not R_S1_V1) $x2950)) (= S1_V5_!1536 S1_V5_!1519)) (or $x6081 (= S1_V5_!1536 S1_V5_!1524)) (or $x1840 (= S2_V1_!1527 S2_V1_!1538)) (or (not $x2774) (= S1_V4_!1525 S1_V4_!1520)) (or (not $x426) (= S1_V4_!1525 S1_V4_!1537)) (or (not (or (not R_S1_V1) $x2950)) (= S1_V4_!1537 S1_V4_!1520)) (or $x1840 (= S2_V2_!1529 S2_V2_!1540)) (or $x1840 $x753) (not MW_S1_V1) (not MW_S1_V2) (or (not MW_S1_V5) W_S1_V5) (or (not MW_S1_V4) W_S1_V4) (or (not MW_S2_V1) W_S2_V1) (or (not MW_S2_V3) W_S2_V3) (or (not MW_S2_V2) W_S2_V2) (or (not MW_S2_V5) W_S2_V5))))
 (or (not $x3494) (not $x1074) $x2913))))))))))))))))))))))))))))))))))))))))
 )
 )
 )
 )
 )
 )
 )
 )
 )
 )
 )
 )
 )
 )
 )
 )
 )
 )
 )
 )
 )
 )
 )
 )
 )
 )
 )
 )
 )
 )
 )
 )
 )
 )
 )
 )
 )
 )
 )
 )
 )
 ))
 (let (($x567 (not (or (and W_S2_V2 R_E1_V2) (and W_S2_V5 R_E1_V5) R_E1_V4))))
 (let (($x3598 (= DISJ_W_S2_R_E1 $x567)))
 (let (($x2217 (and W_S2_V5 R_S2_V5)))
 (let (($x2494 (and W_S2_V2 R_S2_V2)))
 (let (($x671 (and W_S2_V3 R_S2_V3)))
 (let (($x590 (and W_S2_V1 R_S2_V1)))
 (let (($x5411 (= DISJ_W_S2_R_S2 (not (or $x590 $x671 $x2494 $x2217 R_S2_V4)))))
 (let (($x2194 (and W_S2_V5 R_S1_V5)))
 (let (($x1963 (and W_S2_V2 R_S1_V2)))
 (let (($x2405 (and W_S2_V3 R_S1_V3)))
 (let (($x881 (and W_S2_V1 R_S1_V1)))
 (let (($x2327 (= DISJ_W_S2_R_S1 (not (or $x881 $x2405 $x1963 $x2194 R_S1_V4)))))
 (let (($x1047 (= DISJ_W_S1_W_S2 (not (or W_S2_V3 (and W_S1_V5 W_S2_V5) W_S1_V4)))))
 (let (($x1835 (not R_E1_V3)))
 (let (($x355 (not (or R_S2_V3 (and W_S1_V5 R_S2_V5) (and W_S1_V4 R_S2_V4)))))
 (let (($x928 (= DISJ_W_S1_R_S2 $x355)))
 (let (($x3097 (not (or R_S1_V3 (and W_S1_V5 R_S1_V5) (and W_S1_V4 R_S1_V4)))))
 (let (($x1689 (= DISJ_W_S1_R_S1 $x3097)))
 (let (($x2716 (not W_S1_V2)))
 (let (($x3343 (not W_S1_V1)))
 (let (($x2005 (not R_E1_V1)))
 (let (($x5594 (and DISJ_W_S1_R_E1 $x2005 $x3343 $x2716 W_S1_V3 W_S2_V4 $x1689 $x928 $x1835 $x1047 $x2327 $x5411 $x3598 $x631 $x243 $x4233)))
 (and $x5594 $x2279 $x2227)))))))))))))))))))))))))))))
(check-sat)
